
  22   10
  10   10   10   10   10   10   10   10   10   10

   0   0   0   0   0   0   0   0   0   0   0   2 2 8 
   9   0  10   0   0   0   0   0   0   0   0   2 21 3 
   7   0   0  10   0   0   0   0   0   0   0   2 20 4 
   5  10   0   0   0   0   0   0   0   0   0   1 5 
   6   0   0   0   0  10   0   0   0   0   0   1 6 
   6   0   0   0  10   0   0   0   0   0   0   2 16 7 
   8   0  10   0   0   0   0   0   0   0   0   2 19 9 
   2   0   0   0   0   0   0   0   0   0  10   2 19 9 
   3   0   0   0   0   0   0  10   0   0   0   1 10 
   9  10   0   0   0   0   0   0   0   0   0   1 11 
   1  10   0   0   0   0   0   0   0   0   0   1 12 
  10   0   0   0  10   0   0   0   0   0   0   1 13 
   8   0   0   0   0   0  10   0   0   0   0   1 14 
   4   0   0   0  10   0   0   0   0   0   0   2 18 15 
  10   0   0   0   0   0   0   0   0   0  10   1 17 
   6   0   0   0   0   0   0   0   0   0  10   1 19 
   4  10   0   0   0   0   0   0   0   0   0   1 22
   4   0   0   0   0  10   0   0   0   0   0   1 22
   7   0   0   0   0   0   0   0   0   0  10   1 22
  10   0   0   0  10   0   0   0   0   0   0   1 22
   2   0   0   0   0   0   0   0  10   0   0   1 22
   0   0   0   0   0   0   0   0   0   0   0   0 
